c WARNING: for repeatability, setting FPU to use double precision
c Problem Statistics:
c
c [33mBenchmark Information[0m
c Number of variables: 184
c Number of clauses: 320
c Number of literals: 744
c Parse time: 0.00
c
c
c Backbone simplification
c The number of unit literal found is: 5
c Time to realize the backbone simplification: 0.000255
c
c [33mCollect Bi-Partition Procedure[0m
c Time to sort the selector: 0.000067
c Number of input variables computed: 11
c Time to compute the bi-partition: 0.000732
c
c Number of variables forgotten: 59
c Number of iterations: 4
c
c Vivification, total time: 0.000133
c Vivification, number of clauses removed: 54
c Vivification, number of literals removed: 42
c
c Occurrence Elimination, total time: 0.000100
c Occurrence Elimination, number of literals removed: 0
c Time used for the preprocessing step: 0.000371
c
p cnf 184 195
87 -79 58 0
52 59 -60 81 0
79 80 0
60 -80 99 0
79 -81 0
-81 80 0
-81 59 -52 0
80 -87 0
59 -58 -87 -91 -52 0
-99 91 0
-99 87 0
-99 -79 58 0
79 -58 -52 59 0
-81 -87 0
-87 -91 79 0
87 91 0
80 59 -52 0
-59 -52 91 -79 0
87 -79 -59 -80 -52 0
-59 -52 58 99 -80 0
60 -52 0
91 -79 58 0
92 0
-117 0
121 0
122 0
123 0
124 0
125 0
126 0
127 0
128 0
129 0
130 0
131 0
132 0
133 0
134 0
135 0
136 0
137 0
138 0
139 0
140 0
141 0
142 0
143 0
144 0
145 0
146 0
147 0
148 0
149 0
150 0
151 0
152 0
-1 0
-2 0
-3 0
-4 0
-5 0
-6 0
-7 0
-8 0
-9 0
-10 0
-11 0
-12 0
-13 0
-14 0
-15 0
-16 0
-17 0
-18 0
-19 0
-20 0
-21 0
-22 0
-23 0
-24 0
-25 0
-26 0
-27 0
-28 0
-29 0
-30 0
-31 0
-32 0
-108 0
-109 0
-110 0
-111 0
-112 0
-113 0
-114 0
-115 0
-116 0
-182 0
-93 0
94 0
-105 0
-106 0
-107 0
-181 0
-183 0
-95 0
96 0
-180 0
-184 0
-97 0
98 0
-179 0
-118 0
-119 0
-120 0
156 0
45 0
49 0
38 0
-46 0
-39 0
-47 0
40 0
48 0
-155 0
-50 0
-161 0
51 0
-41 0
-44 0
-63 0
-169 0
-67 0
-167 0
-71 0
-165 0
c The variables forgot
157 0
154 0
72 0
68 0
64 0
42 0
153 0
57 0
55 0
53 0
36 0
34 0
43 0
35 0
33 0
177 0
172 0
62 0
66 0
70 0
74 0
76 0
78 0
82 0
84 0
86 0
88 0
90 0
100 0
102 0
104 0
178 0
176 0
175 0
174 0
83 0
171 0
85 0
65 0
89 0
101 0
103 0
54 0
159 0
56 0
61 0
170 0
77 0
69 0
73 0
164 0
75 0
168 0
163 0
160 0
166 0
158 0
162 0
173 0
c The number of literals is: 66
c The number of variables is: 11
